15198
1 0 0 0 0 1 0 0 0 0 0 1 0 0 1 0 0 1 0 0 1 0 0 0 0 1 0 0 0 0 
20 11 20 14 20 5 0 5 14 17 25 20 20 20 0 14 14 17 25 11 14 0 25 0 25 20 0 5 25 25 25 25 14 25 20 20 5 25 11 14 0 14 5 11 5 14 11 20 11 20 25 0 14 5 20 20 17 11 11 14 0 5 20 11 11 11 25 0 25 25 20 20 11 0 5 20 5 20 0 25 20 0 20 17 0 17 17 0 20 25 17 25 0 11 0 5 14 11 25 20 20 0 17 25 0 25 0 11 14 14 14 14 17 11 11 11 5 5 5 5 5 20 25 20 20 11 25 25 11 11 0 11 5 11 14 14 11 25 20 17 0 20 20 14 14 25 25 5 0 5 
